problems/csplib-prob049/set_partition_simple-models/noch/O0/minion/model_1_2-16-solution000001.eprime-solution
language ESSENCE' 1.0

letting setA_Occurrence be
        [false, false, true, true, true, true, false, false, true, true, false, false, false, false, true, true;
             int(1..16)]
letting setB_Explicit be [1, 2, 7, 8, 11, 12, 13, 14; int(1..8)]
